# Solution for model r5_t36_m7_4
# Finished Task: 33 / 36
# Makespan: 923.0, Total Distance: 1581.0, Total Time: 3.6460
# R O S F
0 0 12 0.0 0.0
1 1 23 0.0 0.0
2 2 14 0.0 0.0
3 3 17 0.0 0.0
4 4 34 0.0 0.0
5 1 27 722.0 752.0
6 0 32 371.0 406.0
7 -1 -1 -1.0 -1.0
8 -1 -1 -1.0 -1.0
9 2 33 454.0 480.0
10 -1 -1 -1.0 -1.0
11 3 31 409.0 442.0
12 0 6 217.0 256.0
13 4 19 541.0 580.0
14 2 16 256.0 284.0
15 1 5 693.0 722.0
16 2 9 369.0 396.0
17 3 11 289.0 325.0
18 3 -1 864.0 892.0
19 4 38 599.0 630.0
20 0 36 766.0 793.0
21 3 18 823.0 852.0
22 0 29 627.0 663.0
23 1 30 430.0 460.0
24 3 21 710.0 736.0
25 2 -1 824.0 845.0
26 0 -1 892.0 923.0
27 1 28 789.0 809.0
28 1 -1 852.0 875.0
29 0 20 684.0 716.0
30 1 15 669.0 693.0
31 3 40 526.0 565.0
32 0 22 519.0 546.0
33 2 37 706.0 738.0
34 4 13 411.0 441.0
35 4 -1 799.0 829.0
36 0 26 834.0 854.0
37 2 25 777.0 805.0
38 4 39 718.0 745.0
39 4 35 757.0 785.0
40 3 24 629.0 665.0
